solution status: optimal solution found
objective value:                     127831.123765307
d11(0,0)                                            1 	(obj:0)
d11(1,1)                                            1 	(obj:0)
d11(1,2)                                            1 	(obj:0)
d11(2,3)                                            1 	(obj:0)
d11(2,4)                                            1 	(obj:0)
d11(2,5)                                            1 	(obj:0)
d11(2,6)                                            1 	(obj:0)
d11(3,7)                                            1 	(obj:0)
d11(3,8)                                            1 	(obj:0)
d11(3,9)                                            1 	(obj:0)
d11(3,10)                                           1 	(obj:0)
d11(3,11)                                           1 	(obj:0)
d11(3,13)                                           1 	(obj:0)
d11(3,14)                                           1 	(obj:0)
d21(3,7)                                            1 	(obj:0)
d21(3,9)                                            1 	(obj:0)
d21(3,11)                                           1 	(obj:0)
WB(2)                                3315.65537776224 	(obj:0)
STE(1,1)                             4137.75010111118 	(obj:0)
STE(0,0)                                         6300 	(obj:0)
STE(1,2)                                         5796 	(obj:0)
STE(2,3)                             1763.99999999959 	(obj:0)
STE(2,4)                             3422.24989888832 	(obj:0)
STE(2,5)                              3422.2498988884 	(obj:0)
STE(2,6)                             5080.49979777722 	(obj:0)
STE(3,7)                             -398.24989888926 	(obj:0)
STE(3,8)                             1259.99999999956 	(obj:0)
STE(3,9)                             1259.99999999948 	(obj:0)
STE(3,10)                             2918.2498988883 	(obj:0)
STE(3,11)                            1259.99999999956 	(obj:0)
STE(3,12)                             2918.2498988884 	(obj:0)
STE(3,13)                            2918.24989888838 	(obj:0)
STE(3,14)                            4576.49979777719 	(obj:0)
AVE(2)                               3315.65537776224 	(obj:0)
y1(1,1)                              1492.42490899994 	(obj:0)
y1(2,3)                              1682.77509100044 	(obj:0)
y1(2,4)                              190.350182000573 	(obj:0)
y1(2,5)                              1682.77509100044 	(obj:0)
y1(2,6)                              190.350182000501 	(obj:0)
y1(3,7)                              1492.42490899996 	(obj:0)
y1(3,9)                              1492.42490899996 	(obj:0)
y1(3,11)                             1492.42490899996 	(obj:0)
y1(3,13)                             1492.42490899996 	(obj:0)
AVE(3)                               3315.65799770399 	(obj:0)
WB(1)                                3248.33172520918 	(obj:0)
WG(3)                                3315.65799770399 	(obj:10)
BG(1)                                4196.29249897957 	(obj:10)
BG(2)                                4390.52737857191 	(obj:10)
BG(3)                                880.634501275601 	(obj:10)
AVE(1)                               3248.33172520918 	(obj:0)
